DATASET = "thpack5";
INSTANCE = "073";

WIDTH = 233;
HEIGHT = 220;
LENGTH = 587;

NO_OF_SHAPES = 12;
size = [|
  90,73,37 |
  102,95,33 |
  117,38,30 |
  75,73,57 |
  86,36,34 |
  101,81,62 |
  90,66,65 |
  76,69,51 |
  65,30,30 |
  61,46,37 |
  96,52,45 |
  112,57,27 |
|];

verticality = [|
  0,1,1 |
  0,0,1 |
  0,1,1 |
  1,1,1 |
  0,1,1 |
  1,1,1 |
  1,1,1 |
  1,1,1 |
  0,1,1 |
  1,1,1 |
  0,1,1 |
  0,0,1 |
|];

box_count = [
  8,
  15,
  13,
  8,
  9,
  10,
  14,
  7,
  13,
  12,
  9,
  9,
];
